c 
c G(k,n,p) graph
c graph gen seed     : 5567
c number of vertices : 30
c max number of edges: 500
c number of classes  : 2
c edge density       : 0.800000
c edge probability   : 1.600000
c data structure     : dense
c
c           Graph Stats
c number of vertices  : 30
c nonisolated vertices: 30
c number of edges     : 224
c edge density        : 0.514943
c max degree          : 16
c avg degree          : 14.93
c min degree          : 14
p col 30 224
e 1 2
e 1 4
e 1 5
e 1 8
e 1 9
e 1 13
e 1 15
e 1 16
e 1 17
e 1 20
e 1 21
e 1 23
e 1 26
e 1 29
e 2 3
e 2 6
e 2 7
e 2 10
e 2 11
e 2 12
e 2 14
e 2 18
e 2 19
e 2 22
e 2 24
e 2 25
e 2 27
e 2 28
e 2 30
e 3 4
e 3 5
e 3 8
e 3 9
e 3 13
e 3 15
e 3 16
e 3 17
e 3 20
e 3 21
e 3 23
e 3 26
e 3 29
e 4 6
e 4 7
e 4 10
e 4 11
e 4 12
e 4 14
e 4 18
e 4 19
e 4 22
e 4 24
e 4 25
e 4 27
e 4 28
e 4 30
e 5 6
e 5 7
e 5 10
e 5 11
e 5 12
e 5 14
e 5 18
e 5 19
e 5 22
e 5 24
e 5 25
e 5 27
e 5 28
e 5 30
e 6 8
e 6 9
e 6 13
e 6 15
e 6 16
e 6 17
e 6 20
e 6 21
e 6 23
e 6 26
e 6 29
e 7 8
e 7 9
e 7 13
e 7 15
e 7 16
e 7 17
e 7 20
e 7 21
e 7 23
e 7 26
e 7 29
e 8 10
e 8 11
e 8 12
e 8 14
e 8 18
e 8 19
e 8 22
e 8 24
e 8 25
e 8 27
e 8 28
e 8 30
e 9 10
e 9 11
e 9 12
e 9 14
e 9 18
e 9 19
e 9 22
e 9 24
e 9 25
e 9 27
e 9 28
e 9 30
e 10 13
e 10 15
e 10 16
e 10 17
e 10 20
e 10 21
e 10 23
e 10 26
e 10 29
e 11 13
e 11 15
e 11 16
e 11 17
e 11 20
e 11 21
e 11 23
e 11 26
e 11 29
e 12 13
e 12 15
e 12 16
e 12 17
e 12 20
e 12 21
e 12 23
e 12 26
e 12 29
e 13 14
e 13 18
e 13 19
e 13 22
e 13 24
e 13 25
e 13 27
e 13 28
e 13 30
e 14 15
e 14 16
e 14 17
e 14 20
e 14 21
e 14 23
e 14 26
e 14 29
e 15 18
e 15 19
e 15 22
e 15 24
e 15 25
e 15 27
e 15 28
e 15 30
e 16 18
e 16 19
e 16 22
e 16 24
e 16 25
e 16 27
e 16 28
e 16 30
e 17 18
e 17 19
e 17 22
e 17 24
e 17 25
e 17 27
e 17 28
e 17 30
e 18 20
e 18 21
e 18 23
e 18 26
e 18 29
e 19 20
e 19 21
e 19 23
e 19 26
e 19 29
e 20 22
e 20 24
e 20 25
e 20 27
e 20 28
e 20 30
e 21 22
e 21 24
e 21 25
e 21 27
e 21 28
e 21 30
e 22 23
e 22 26
e 22 29
e 23 24
e 23 25
e 23 27
e 23 28
e 23 30
e 24 26
e 24 29
e 25 26
e 25 29
e 26 27
e 26 28
e 26 30
e 27 29
e 28 29
e 29 30
